Route #1: 83 45 17 84 61 85 93
Route #2: 6 96 59 99 5 60 89
Route #3: 91 16 86 44 38 14 92
Route #4: 13 87 97 95 94
Route #5: 37 98 100 42 43 15 57 41 22 2 58
Route #6: 21 72 56 23 75 74 73
Route #7: 40 4 39 67 25 55 54
Route #8: 53 26 12 28
Route #9: 68 80 24 29 79 77 76
Route #10: 50 33 81 9 51 1 27
Route #11: 3 78 34 35 65 71 66 20 70
Route #12: 69 30 32 90 63 10 31
Route #13: 88 62 11 64 49 36 46 8 18
Route #14: 52 7 19 47 48 82
Cost 1094
Time 0.23457
